<?xml version = "1.0" encoding="UTF-8" standalone="yes"?>
<CPLEXSolution version="1.2">
 <header
   problemName="inst_14_cut_n13"
   objectiveValue="54.532614450694339"
   solutionTypeValue="1"
   solutionTypeString="basic"
   solutionStatusValue="1"
   solutionStatusString="optimal"
   solutionMethodString="dual"
   primalFeasible="1"
   dualFeasible="1"
   simplexIterations="4"
   writeLevel="1"/>
 <quality
   epRHS="9.9999999999999995e-07"
   epOpt="9.9999999999999995e-07"
   maxPrimalInfeas="0"
   maxDualInfeas="0"
   maxPrimalResidual="4.2632564145606011e-14"
   maxDualResidual="7.1054273576010019e-15"
   maxX="0.91098454070319046"
   maxPi="16.614020832568844"
   maxSlack="254.09718021168072"
   maxRedCost="0.26533479416436445"
   kappa="16001.97097766259"/>
 <linearConstraints>
  <constraint name="c0" index="0" status="BS" slack="146.83941779942231" dual="-0"/>
  <constraint name="c1" index="1" status="BS" slack="96.109494178518474" dual="-0"/>
  <constraint name="c2" index="2" status="BS" slack="113.92805844023088" dual="-0"/>
  <constraint name="c3" index="3" status="BS" slack="254.09718021168072" dual="-0"/>
  <constraint name="c4" index="4" status="LL" slack="0" dual="0.0043510397936663489"/>
  <constraint name="c5" index="5" status="BS" slack="195.8290198627588" dual="-0"/>
  <constraint name="c6" index="6" status="LL" slack="0" dual="0.010494917670988046"/>
  <constraint name="c7" index="7" status="BS" slack="237.58850958539313" dual="-0"/>
  <constraint name="c8" index="8" status="BS" slack="35.863883224382633" dual="-0"/>
  <constraint name="c9" index="9" status="BS" slack="252.35640520237581" dual="-0"/>
  <constraint name="c10" index="10" status="BS" slack="133.09393790070197" dual="-0"/>
  <constraint name="c11" index="11" status="BS" slack="232.7162597832868" dual="-0"/>
  <constraint name="c12" index="12" status="LL" slack="0" dual="0.26533479416436445"/>
  <constraint name="cut_1" index="13" status="BS" slack="1.2641369476669553" dual="-0"/>
  <constraint name="cut_2" index="14" status="BS" slack="0.58084022247967937" dual="-0"/>
  <constraint name="cut_3" index="15" status="BS" slack="0.36659345037456692" dual="-0"/>
  <constraint name="cut_4" index="16" status="BS" slack="0.89754349729238214" dual="-0"/>
  <constraint name="cut_5" index="17" status="BS" slack="0.1389056348586406" dual="-0"/>
  <constraint name="cut_6" index="18" status="BS" slack="0.68329672518726881" dual="-0"/>
  <constraint name="cut_7" index="19" status="BS" slack="1.1600160411828426" dual="-0"/>
  <constraint name="cut_8" index="20" status="BS" slack="0.8704281318312681" dual="-0"/>
  <constraint name="cut_9" index="21" status="BS" slack="0.077005541022963087" dual="-0"/>
  <constraint name="cut_10" index="22" status="BS" slack="0.42082418129681942" dual="-0"/>
  <constraint name="cut_11" index="23" status="BS" slack="0.89754349729238925" dual="-0"/>
  <constraint name="cut_12" index="24" status="BS" slack="0.57317085956623792" dual="-0"/>
  <constraint name="cut_13" index="25" status="LL" slack="0" dual="16.614020832568844"/>
 </linearConstraints>
 <variables>
  <variable name="x0" index="0" status="BS" value="0.91098454070319046" reducedCost="0"/>
  <variable name="x1" index="1" status="BS" value="0.22602341173942014" reducedCost="0"/>
  <variable name="x2" index="2" status="BS" value="0.7739765882605798" reducedCost="0"/>
  <variable name="x3" index="3" status="BS" value="0.57917581870318058" reducedCost="0"/>
  <variable name="s0" index="4" status="LL" value="0" reducedCost="0"/>
  <variable name="s1" index="5" status="LL" value="0" reducedCost="0"/>
  <variable name="s2" index="6" status="LL" value="0" reducedCost="0"/>
  <variable name="s3" index="7" status="LL" value="0" reducedCost="0"/>
  <variable name="s4" index="8" status="LL" value="0" reducedCost="-0.0043510397936663489"/>
  <variable name="s5" index="9" status="LL" value="0" reducedCost="0"/>
  <variable name="s6" index="10" status="LL" value="0" reducedCost="-0.010494917670988046"/>
  <variable name="s7" index="11" status="LL" value="0" reducedCost="0"/>
  <variable name="s8" index="12" status="LL" value="0" reducedCost="0"/>
  <variable name="s9" index="13" status="LL" value="0" reducedCost="0"/>
  <variable name="s10" index="14" status="LL" value="0" reducedCost="0"/>
  <variable name="s11" index="15" status="LL" value="0" reducedCost="0"/>
  <variable name="s12" index="16" status="LL" value="0" reducedCost="-0.26533479416436445"/>
 </variables>
 <objectiveValues>
  <objective index="0" name="" value="54.532614450694332"/>
 </objectiveValues>
</CPLEXSolution>
